proyfinal/src/viki/013/andrea/andrea-localstore/experimentInOfficeAgust.take6/worker_1/14de4094-b1a2-48d4-958d-8119f8688f29.als.cnf.out
Reading from standard input... Use '--help' for help.
============================[ Problem Statistics ]=============================
|                                                                             |
|  Number of variables:         87638                                         |
|  Number of clauses:          161767                                         |
|  Parse time:                   0.03 s                                       |
|                                                                             |
============================[ Search Statistics ]==============================
| Conflicts |          ORIGINAL         |          LEARNT          | Progress |
|           |    Vars  Clauses Literals |    Limit  Clauses Lit/Cl |          |
===============================================================================
|       100 |   63329   108563   271269 |    39806      100     25 | 27.738 % |
|       250 |   63329   108563   271269 |    43787      250     28 | 27.738 % |
|       475 |   63276   108463   271040 |    48165      473     35 | 27.798 % |
|       812 |   63246   108229   270477 |    52982      807     42 | 27.833 % |
|      1318 |   54454    81881   205557 |    58280     1280     80 | 37.865 % |
|      2077 |   54454    81773   205293 |    64108     2011     69 | 37.865 % |
|      3216 |   54251    81416   204432 |    70519     3118     64 | 38.096 % |
|      4924 |   54185    80734   202775 |    77571     4666     82 | 38.172 % |
|      7486 |   54152    80494   202187 |    85328     7190     90 | 38.209 % |
|     11330 |   53986    79836   200582 |    93861    10879     80 | 38.399 % |
|     17096 |   53437    77844   195636 |   103247    15050     80 | 39.025 % |
===============================================================================
restarts              : 87
conflicts             : 23806          (7274 /sec)
decisions             : 80021          (0.00 % random) (24451 /sec)
propagations          : 31140582       (9515123 /sec)
conflict literals     : 1907618        (43.80 % deleted)
Memory used           : 43.65 MB
CPU time              : 3.27275 s

INDETERMINATE
